sat
(:max-memory          18.52
 :memory              18.42
 :nlsat-arith-var     2
 :nlsat-atoms         10
 :nlsat-bool-var      1
 :nlsat-clauses       8
 :nlsat-conflicts     2
 :nlsat-propagations  16
 :nlsat-stages        5
 :num-allocs          75066
 :rlimit-count        3545
 :solve-eqs-elim-vars 1
 :solve-eqs-steps     6
 :time                0.00
 :total-time          0.02)
